113 300 90 79 59 58 93 66 85 71 56 82 100 91 97 54 75 73 52 100 56 81 80 67 50 64 99 86 62 92 52 83 97 66 61 55 74 53 96 83 100 51 65 73 93 61 77 92 84 54 92 65 59 96 56 60 59 79 96 96 95 72 79 92 88 90 71 86 68 67 94 67 93 58 64 59 94 91 51 51 95 67 66 79 87 97 89 96 76 58 65 70 80 94 86 92 84 57 51 51 99 95 93 91 77 56 50 70 71 51 72 91 93 62 69 